Ni-BN
1.0
        2.4960870743         0.0000000000         0.0000000000
       -1.2480435575         2.1616761811         0.0000000000
        0.0000000000         0.0000000000        35.0000000000
    B    N   Ni
    3    3   10
Cartesian
     0.000000000         0.000000000        20.869488055
     0.000000000         0.000000000        17.499995828
     0.000000000         0.000000000        14.130529679
    -0.000001278         1.441118141        20.748595367
    -0.000001278         1.441118141        17.499995828
    -0.000001278         1.441118141        14.251422367
     0.000000000         0.000000000         4.347331796
    -0.000001278         1.441118141         6.280102521
     1.248044757         0.720557975         8.275390392
     0.000000000         0.000000000        10.230555664
    -0.000001278         1.441118141        12.189852262
     0.000000000         0.000000000        30.652667682
    -0.000001278         1.441118141        28.719895914
     1.248044757         0.720557975        26.724608564
     0.000000000         0.000000000        24.769443293
    -0.000001278         1.441118141        22.810146695
