generated with latticeMatcher + layered top Ni matching bottom stacking (v2) | r
1.0
        4.3233494759         0.0000000000         0.0000000000
        0.0000000000         2.4960873127         0.0000000000
        0.0000000000         0.0000000000        35.0000000000
    B    N   Ni
    6    6   20
Direct
     0.000000000         0.000000000         0.589428961
     0.500000000         0.500000000         0.589428961
     0.000000000         0.000000000         0.499999881
     0.500000000         0.500000000         0.499999881
     0.000000000         0.000000000         0.410571545
     0.500000000         0.500000000         0.410571545
     0.166666999         0.500000000         0.589428961
     0.666666999         0.000000000         0.589428961
     0.166666999         0.500000000         0.499999881
     0.666666999         0.000000000         0.499999881
     0.166666999         0.500000000         0.410571545
     0.666666999         0.000000000         0.410571545
     0.000000000         0.000000000         0.119080409
     0.500000000         0.500000000         0.119080409
     0.166666999         0.500000000         0.177310422
     0.666666999         0.000000000         0.177310422
     0.833333001         0.500000000         0.235540420
     0.333333001         0.000000000         0.235540420
     0.000000000         0.000000000         0.293770403
     0.500000000         0.500000000         0.293770403
     0.166666999         0.500000000         0.351999551
     0.666666999         0.000000000         0.351999551
     0.000000000         0.000000000         0.880919576
     0.500000000         0.500000000         0.880919576
     0.166666999         0.500000000         0.822689533
     0.666666999         0.000000000         0.822689533
     0.833333001         0.500000000         0.764459550
     0.333333001         0.000000000         0.764459550
     0.000000000         0.000000000         0.706229568
     0.500000000         0.500000000         0.706229568
     0.166666999         0.500000000         0.648000419
     0.666666999         0.000000000         0.648000419
