generated with latticeMatcher + layered top Ni matching bottom stacking (v2) | r
1.0
        4.3233494759         0.0000000000         0.0000000000
        0.0000000000         2.4960873127         0.0000000000
        0.0000000000         0.0000000000        35.0000000000
    B    N   Ni
    6    6   20
Cartesian
     0.000000000         0.000000000        20.630013635
     2.161674738         1.248043656        20.630013635
     0.000000000         0.000000000        17.499995835
     2.161674738         1.248043656        17.499995835
     0.000000000         0.000000000        14.370004075
     2.161674738         1.248043656        14.370004075
     0.720559683         1.248043656        20.630013635
     2.882234421         0.000000000        20.630013635
     0.720559683         1.248043656        17.499995835
     2.882234421         0.000000000        17.499995835
     0.720559683         1.248043656        14.370004075
     2.882234421         0.000000000        14.370004075
     0.000000000         0.000000000         4.167814315
     2.161674738         1.248043656         4.167814315
     0.720559683         1.248043656         6.205864770
     2.882234421         0.000000000         6.205864770
     3.602789793         1.248043656         8.243914700
     1.441115055         0.000000000         8.243914700
     0.000000000         0.000000000        10.281964105
     2.161674738         1.248043656        10.281964105
     0.720559683         1.248043656        12.319984285
     2.882234421         0.000000000        12.319984285
     0.000000000         0.000000000        30.832185160
     2.161674738         1.248043656        30.832185160
     0.720559683         1.248043656        28.794133655
     2.882234421         0.000000000        28.794133655
     3.602789793         1.248043656        26.756084250
     1.441115055         0.000000000        26.756084250
     0.000000000         0.000000000        24.718034880
     2.161674738         1.248043656        24.718034880
     0.720559683         1.248043656        22.680014665
     2.882234421         0.000000000        22.680014665
